NAME: A-n6-f2
COMMENT : -
TYPE : GVRP
DIMENSION : 7
EDGE_WEIGHT_TYPE : EUC_2D
CAPACITY : 100
AUTONOMY : 52
TIME LIMIT : 11
SPEED : 40.0
FUEL CONSUMPTION : 1.0
DEPOT_COORD_SECTION
0 82 76
CUSTOMER_COORD_SECTION
1 96 44 19 0.07062652505233469
2 13 7 21 0.8646423928310745
3 84 25 6 0.5623672982787624
4 85 60 19 0.6104129632241728
5 98 5 7 0.09870381343602785
AFS_COORD_SECTION
6 83 25 0.25
7 39 9 0.25
EOF